
Gurobi 9.5.2 (mac64[arm]) logging started Thu Apr 27 19:55:13 2023

Set parameter LogFile to value "Java/output/iterative_model_full/scenario_seed_3_nJob_50_machineCount_1/mip_increment_1/log.txt"
Gurobi Optimizer version 9.5.2 build v9.5.2rc0 (mac64[arm])
Thread count: 8 physical cores, 8 logical processors, using up to 8 threads
Optimize a model with 2868 rows, 20504 columns and 249712 nonzeros
Model fingerprint: 0xb8c8f50d
Variable types: 0 continuous, 20504 integer (20504 binary)
Coefficient statistics:
  Matrix range     [1e+00, 5e+02]
  Objective range  [2e+01, 2e+07]
  Bounds range     [1e+00, 1e+00]
  RHS range        [1e+00, 1e+00]
Found heuristic solution: objective 1.004461e+08
Presolve removed 102 rows and 1069 columns
Presolve time: 0.30s
Presolved: 2766 rows, 19435 columns, 233287 nonzeros
Variable types: 0 continuous, 19435 integer (19427 binary)

Root relaxation: objective 1.354045e+04, 5712 iterations, 0.47 seconds (1.22 work units)

    Nodes    |    Current Node    |     Objective Bounds      |     Work
 Expl Unexpl |  Obj  Depth IntInf | Incumbent    BestBd   Gap | It/Node Time

     0     0 13540.4450    0  127 1.0045e+08 13540.4450   100%     -    0s
H    0     0                    1.771525e+07 13540.4450   100%     -    0s
H    0     0                    1.604850e+07 13540.4450   100%     -    0s
H    0     0                    1.441208e+07 13540.4450   100%     -    1s
H    0     0                    3122400.0000 13540.4450   100%     -    1s
H    0     0                    3122368.0000 13579.9971   100%     -    1s
H    0     0                    15744.000000 13579.9971  13.7%     -    1s
     0     0 13579.9971    0  206 15744.0000 13579.9971  13.7%     -    1s
H    0     0                    15728.000000 13579.9971  13.7%     -    1s
H    0     0                    15712.000000 13579.9971  13.6%     -    1s
     0     0 13581.1748    0  210 15712.0000 13581.1748  13.6%     -    1s
     0     0 13581.1748    0  209 15712.0000 13581.1748  13.6%     -    1s
H    0     0                    15664.000000 13581.1748  13.3%     -    2s
     0     0 13619.6275    0  236 15664.0000 13619.6275  13.1%     -    2s
     0     0 13619.6275    0  123 15664.0000 13619.6275  13.1%     -    3s
     0     0 13619.6275    0  230 15664.0000 13619.6275  13.1%     -    3s
     0     0 13623.1301    0  230 15664.0000 13623.1301  13.0%     -    3s
     0     0 13626.2379    0  232 15664.0000 13626.2379  13.0%     -    3s
     0     0 13626.2379    0  238 15664.0000 13626.2379  13.0%     -    3s
H    0     0                    15632.000000 13626.2379  12.8%     -    3s
     0     0 13647.8582    0  291 15632.0000 13647.8582  12.7%     -    3s
H    0     0                    15488.000000 13647.8582  11.9%     -    3s
     0     0 13648.3521    0  291 15488.0000 13648.3521  11.9%     -    4s
     0     0 13648.3887    0  284 15488.0000 13648.3887  11.9%     -    4s
     0     0 13648.3887    0  287 15488.0000 13648.3887  11.9%     -    4s
H    0     0                    15280.000000 13648.3887  10.7%     -    4s
     0     0 13672.6190    0  340 15280.0000 13672.6190  10.5%     -    4s
     0     0 13682.8312    0  344 15280.0000 13682.8312  10.5%     -    4s
     0     0 13687.7850    0  368 15280.0000 13687.7850  10.4%     -    5s
     0     0 13688.0047    0  364 15280.0000 13688.0047  10.4%     -    5s
     0     0 13688.0824    0  371 15280.0000 13688.0824  10.4%     -    5s
     0     0 13688.0828    0  375 15280.0000 13688.0828  10.4%     -    5s
     0     0 13710.1173    0  339 15280.0000 13710.1173  10.3%     -    5s
     0     0 13714.5614    0  344 15280.0000 13714.5614  10.2%     -    5s
     0     0 13716.0188    0  356 15280.0000 13716.0188  10.2%     -    5s
     0     0 13716.2684    0  361 15280.0000 13716.2684  10.2%     -    5s
     0     0 13716.2970    0  363 15280.0000 13716.2970  10.2%     -    5s
     0     0 13739.3579    0  381 15280.0000 13739.3579  10.1%     -    5s
H    0     0                    15264.000000 13739.3579  10.0%     -    6s
     0     0 13741.5578    0  381 15264.0000 13741.5578  10.0%     -    6s
     0     0 13742.3709    0  388 15264.0000 13742.3709  10.0%     -    6s
     0     0 13742.4660    0  391 15264.0000 13742.4660  10.0%     -    6s
     0     0 13754.5580    0  411 15264.0000 13754.5580  9.89%     -    6s
H    0     0                    14992.000000 13754.5580  8.25%     -    6s
     0     0 13757.0671    0  383 14992.0000 13757.0671  8.24%     -    6s
     0     0 13757.8355    0  414 14992.0000 13757.8355  8.23%     -    6s
     0     0 13758.1637    0  428 14992.0000 13758.1637  8.23%     -    6s
     0     0 13758.1679    0  430 14992.0000 13758.1679  8.23%     -    6s
     0     0 13771.2145    0  405 14992.0000 13771.2145  8.14%     -    6s
     0     0 13777.9577    0  423 14992.0000 13777.9577  8.10%     -    7s
     0     0 13780.1663    0  437 14992.0000 13780.1663  8.08%     -    7s
     0     0 13780.8822    0  430 14992.0000 13780.8822  8.08%     -    7s
     0     0 13781.2521    0  441 14992.0000 13781.2521  8.08%     -    7s
     0     0 13781.3006    0  443 14992.0000 13781.3006  8.08%     -    7s
H    0     0                    14816.000000 13781.3006  6.98%     -    7s
     0     0 13792.2410    0  460 14816.0000 13792.2410  6.91%     -    7s
H    0     0                    14784.000000 13792.2410  6.71%     -    7s
H    0     0                    14720.000000 13792.2410  6.30%     -    7s
     0     0 13796.4318    0  465 14720.0000 13796.4318  6.27%     -    7s
     0     0 13797.2710    0  472 14720.0000 13797.2710  6.27%     -    7s
     0     0 13797.4433    0  481 14720.0000 13797.4433  6.27%     -    7s
     0     0 13800.7461    0  477 14720.0000 13800.7461  6.24%     -    8s
H    0     0                    14688.000000 13800.7461  6.04%     -    8s
     0     0 13802.0108    0  496 14688.0000 13802.0108  6.03%     -    8s
     0     0 13802.2109    0  495 14688.0000 13802.2109  6.03%     -    8s
     0     0 13807.0250    0  506 14688.0000 13807.0250  6.00%     -    8s
H    0     0                    14672.000000 13807.0250  5.90%     -    8s
     0     0 13808.0022    0  537 14672.0000 13808.0022  5.89%     -    8s
     0     0 13808.9178    0  523 14672.0000 13808.9178  5.88%     -    8s
     0     0 13809.0476    0  532 14672.0000 13809.0476  5.88%     -    8s
H    0     0                    14576.000000 13809.0476  5.26%     -    9s
     0     0 13815.8756    0  528 14576.0000 13815.8756  5.21%     -    9s
     0     0 13816.8771    0  536 14576.0000 13816.8771  5.21%     -    9s
     0     0 13817.3195    0  541 14576.0000 13817.3195  5.20%     -    9s
     0     0 13817.3744    0  553 14576.0000 13817.3744  5.20%     -    9s
     0     0 13820.0497    0  541 14576.0000 13820.0497  5.19%     -    9s
H    0     0                    14560.000000 13820.0497  5.08%     -    9s
     0     0 13820.8092    0  536 14560.0000 13820.8092  5.08%     -    9s
     0     0 13821.0699    0  550 14560.0000 13821.0699  5.08%     -    9s
     0     0 13822.4083    0  562 14560.0000 13822.4083  5.07%     -    9s
     0     0 13822.4083    0  555 14560.0000 13822.4083  5.07%     -    9s
     0     2 13822.4617    0  553 14560.0000 13822.4617  5.07%     -   10s
    67    75 13841.4221    7  507 14560.0000 13834.5356  4.98%  1394   15s
H   73    75                    14528.000000 13834.5356  4.77%  1358   15s

Cutting planes:
  Cover: 8
  Clique: 150
  MIR: 174
  StrongCG: 83
  GUB cover: 97
  Zero half: 6
  Mod-K: 3
  RLT: 1

Explored 101 nodes (179986 simplex iterations) in 16.01 seconds (39.45 work units)
Thread count was 8 (of 8 available processors)

Solution count 10: 14528 14560 14576 ... 15264

Time limit reached
Best objective 1.452800000000e+04, best bound 1.384000000000e+04, gap 4.7357%

Gurobi 9.5.2 (mac64[arm]) logging started Thu Apr 27 19:55:30 2023

Set parameter LogFile to value "Java/output/iterative_model_full/scenario_seed_3_nJob_50_machineCount_1/mip_increment_1/log.txt"
Gurobi Optimizer version 9.5.2 build v9.5.2rc0 (mac64[arm])
Thread count: 8 physical cores, 8 logical processors, using up to 8 threads
Optimize a model with 2870 rows, 16864 columns and 210364 nonzeros
Model fingerprint: 0x105104c9
Variable types: 0 continuous, 16864 integer (16864 binary)
Coefficient statistics:
  Matrix range     [1e+00, 5e+02]
  Objective range  [4e+02, 4e+06]
  Bounds range     [1e+00, 1e+00]
  RHS range        [1e+00, 1e+00]
Presolve removed 602 rows and 653 columns
Presolve time: 0.24s
Presolved: 2268 rows, 16211 columns, 201189 nonzeros
Variable types: 0 continuous, 16211 integer (16207 binary)

Root relaxation: objective 9.768628e+03, 7389 iterations, 0.49 seconds (1.05 work units)

    Nodes    |    Current Node    |     Objective Bounds      |     Work
 Expl Unexpl |  Obj  Depth IntInf | Incumbent    BestBd   Gap | It/Node Time

     0     0 9768.62821    0   79          - 9768.62821      -     -    0s
H    0     0                    1.602319e+07 9768.62821   100%     -    1s
H    0     0                    3195236.0000 9768.62821   100%     -    1s
H    0     0                    2294988.0000 9768.62821   100%     -    1s
     0     0 9781.14946    0  124 2294988.00 9781.14946   100%     -    1s
H    0     0                    351104.00000 9781.14946  97.2%     -    1s
H    0     0                    156380.00000 9794.18276  93.7%     -    1s
     0     0 9794.18276    0  132 156380.000 9794.18276  93.7%     -    1s
     0     0 9794.28982    0  126 156380.000 9794.28982  93.7%     -    1s
     0     0 9794.28982    0  129 156380.000 9794.28982  93.7%     -    1s
H    0     0                    156364.00000 9795.20489  93.7%     -    1s
     0     0 9795.20489    0  177 156364.000 9795.20489  93.7%     -    1s
H    0     0                    156336.00000 9795.20489  93.7%     -    1s
     0     0 9795.68067    0  179 156336.000 9795.68067  93.7%     -    1s
     0     0 9795.71508    0  179 156336.000 9795.71508  93.7%     -    1s
     0     0 9795.71511    0  185 156336.000 9795.71511  93.7%     -    1s
     0     0 9804.46528    0  185 156336.000 9804.46528  93.7%     -    2s
H    0     0                    154432.00000 9804.46528  93.7%     -    2s
     0     0 9805.41050    0  205 154432.000 9805.41050  93.7%     -    2s
H    0     0                    14336.000000 9806.09550  31.6%     -    2s
     0     0 9806.09550    0  207 14336.0000 9806.09550  31.6%     -    2s
     0     0 9806.09596    0  208 14336.0000 9806.09596  31.6%     -    2s
H    0     0                    11652.000000 9806.09596  15.8%     -    2s
H    0     0                    10208.000000 9806.09596  3.94%     -    2s
H    0     0                    10168.000000 9806.09596  3.56%     -    2s
     0     0 9808.30573    0  161 10168.0000 9808.30573  3.54%     -    3s
H    0     0                    10100.000000 9808.30573  2.89%     -    3s
     0     0 9808.30573    0  101 10100.0000 9808.30573  2.89%     -    3s
H    0     0                    10092.000000 9808.30573  2.81%     -    3s
     0     0 9808.30573    0  155 10092.0000 9808.30573  2.81%     -    3s
     0     0 9808.72238    0  143 10092.0000 9808.72238  2.81%     -    3s
H    0     0                    10084.000000 9808.72238  2.73%     -    3s
     0     0 9813.81365    0  176 10084.0000 9813.81365  2.68%     -    3s
     0     0 9813.87449    0  178 10084.0000 9813.87449  2.68%     -    3s
     0     0 9814.70917    0  193 10084.0000 9814.70917  2.67%     -    3s
     0     0 9814.77114    0  180 10084.0000 9814.77114  2.67%     -    3s
     0     0 9814.79912    0  184 10084.0000 9814.79912  2.67%     -    3s
     0     0 9814.79912    0  185 10084.0000 9814.79912  2.67%     -    3s
H    0     0                    10076.000000 9814.79912  2.59%     -    3s
     0     0 9817.58394    0  195 10076.0000 9817.58394  2.56%     -    3s
     0     0 9817.77582    0  198 10076.0000 9817.77582  2.56%     -    3s
     0     0 9817.89523    0  203 10076.0000 9817.89523  2.56%     -    3s
     0     0 9817.90858    0  206 10076.0000 9817.90858  2.56%     -    3s
     0     0 9817.94961    0  218 10076.0000 9817.94961  2.56%     -    3s
     0     0 9817.95507    0  217 10076.0000 9817.95507  2.56%     -    3s
     0     0 9834.22473    0  231 10076.0000 9834.22473  2.40%     -    4s
H    0     0                    10044.000000 9834.22473  2.09%     -    4s
     0     0 9837.05778    0  259 10044.0000 9837.05778  2.06%     -    4s
     0     0 9838.18271    0  248 10044.0000 9838.18271  2.05%     -    4s
     0     0 9838.67487    0  237 10044.0000 9838.67487  2.04%     -    4s
     0     0 9838.93415    0  242 10044.0000 9838.93415  2.04%     -    4s
     0     0 9838.97627    0  249 10044.0000 9838.97627  2.04%     -    4s
     0     0 9838.97885    0  248 10044.0000 9838.97885  2.04%     -    4s
H    0     0                    10036.000000 9838.97885  1.96%     -    4s
     0     0 9844.01595    0  266 10036.0000 9844.01595  1.91%     -    4s
     0     0 9846.41464    0  288 10036.0000 9846.41464  1.89%     -    4s
     0     0 9846.96323    0  299 10036.0000 9846.96323  1.88%     -    4s
     0     0 9847.02531    0  301 10036.0000 9847.02531  1.88%     -    4s
     0     0 9847.03666    0  301 10036.0000 9847.03666  1.88%     -    4s
H    0     0                    10028.000000 9847.03666  1.80%     -    4s
     0     0 9848.01274    0  313 10028.0000 9848.01274  1.79%     -    4s
     0     0 9848.29073    0  324 10028.0000 9848.29073  1.79%     -    5s
     0     0 9848.48094    0  319 10028.0000 9848.48094  1.79%     -    5s
     0     0 9848.53268    0  321 10028.0000 9848.53268  1.79%     -    5s
     0     0 9848.60785    0  325 10028.0000 9848.60785  1.79%     -    5s
     0     0 9848.62723    0  327 10028.0000 9848.62723  1.79%     -    5s
     0     0 9851.40446    0  323 10028.0000 9851.40446  1.76%     -    5s
     0     0 9852.05383    0  346 10028.0000 9852.05383  1.75%     -    5s
     0     0 9852.09149    0  347 10028.0000 9852.09149  1.75%     -    5s
     0     0 9854.37666    0  348 10028.0000 9854.37666  1.73%     -    5s
H    0     0                    10020.000000 9854.37666  1.65%     -    5s
     0     0 9855.42895    0  337 10020.0000 9855.42895  1.64%     -    5s
     0     0 9855.63098    0  347 10020.0000 9855.63098  1.64%     -    5s
     0     0 9855.69470    0  359 10020.0000 9855.69470  1.64%     -    5s
     0     0 9855.69896    0  357 10020.0000 9855.69896  1.64%     -    5s
H    0     0                    10008.000000 9855.69896  1.52%     -    5s
     0     0 9856.34732    0  347 10008.0000 9856.34732  1.52%     -    5s
     0     0 9856.54231    0  354 10008.0000 9856.54231  1.51%     -    5s
     0     0 9856.62284    0  367 10008.0000 9856.62284  1.51%     -    5s
     0     0 9856.63002    0  366 10008.0000 9856.63002  1.51%     -    5s
     0     0 9857.13445    0  352 10008.0000 9857.13445  1.51%     -    5s
     0     0 9857.28774    0  381 10008.0000 9857.28774  1.51%     -    5s
     0     0 9857.39528    0  376 10008.0000 9857.39528  1.50%     -    5s
     0     0 9857.42258    0  386 10008.0000 9857.42258  1.50%     -    6s
     0     0 9858.44634    0  372 10008.0000 9858.44634  1.49%     -    6s
     0     0 9858.79837    0  370 10008.0000 9858.79837  1.49%     -    6s
     0     0 9858.89715    0  371 10008.0000 9858.89715  1.49%     -    6s
     0     0 9858.99104    0  363 10008.0000 9858.99104  1.49%     -    6s
     0     0 9859.01379    0  373 10008.0000 9859.01379  1.49%     -    6s
     0     0 9860.13990    0  384 10008.0000 9860.13990  1.48%     -    6s
     0     0 9860.55299    0  385 10008.0000 9860.55299  1.47%     -    6s
     0     0 9860.58124    0  402 10008.0000 9860.58124  1.47%     -    6s
     0     0 9861.56015    0  392 10008.0000 9861.56015  1.46%     -    6s
     0     0 9862.08287    0  415 10008.0000 9862.08287  1.46%     -    6s
     0     0 9862.20607    0  404 10008.0000 9862.20607  1.46%     -    6s
     0     0 9862.28445    0  410 10008.0000 9862.28445  1.46%     -    6s
     0     0 9863.07666    0  403 10008.0000 9863.07666  1.45%     -    6s
     0     0 9863.29832    0  410 10008.0000 9863.29832  1.45%     -    6s
     0     0 9863.36563    0  418 10008.0000 9863.36563  1.45%     -    6s
     0     0 9864.28747    0  424 10008.0000 9864.28747  1.44%     -    7s
     0     0 9864.39950    0  430 10008.0000 9864.39950  1.43%     -    7s
     0     0 9864.42879    0  440 10008.0000 9864.42879  1.43%     -    7s
     0     0 9864.72278    0  430 10008.0000 9864.72278  1.43%     -    7s
     0     0 9864.73017    0  415 10008.0000 9864.73017  1.43%     -    7s
     0     2 9864.74849    0  409 10008.0000 9864.74849  1.43%     -    8s
    47    55 9907.73388    8  306 10008.0000 9867.58740  1.40%   818   10s
H  116   103                    9976.0000000 9867.58740  1.09%   736   12s
H  212   193                    9964.0000000 9867.58740  0.97%   652   13s
   313   274 9883.67710   21  330 9964.00000 9867.58740  0.97%   619   15s

Cutting planes:
  Gomory: 2
  Cover: 9
  Clique: 103
  MIR: 166
  StrongCG: 102
  GUB cover: 118
  Inf proof: 1
  Zero half: 11
  RLT: 14

Explored 425 nodes (293590 simplex iterations) in 16.01 seconds (42.62 work units)
Thread count was 8 (of 8 available processors)

Solution count 10: 9964 9976 10008 ... 10092

Time limit reached
Best objective 9.964000000000e+03, best bound 9.868000000000e+03, gap 0.9635%

Gurobi 9.5.2 (mac64[arm]) logging started Thu Apr 27 19:55:46 2023

Set parameter LogFile to value "Java/output/iterative_model_full/scenario_seed_3_nJob_50_machineCount_1/mip_increment_1/log.txt"
Gurobi Optimizer version 9.5.2 build v9.5.2rc0 (mac64[arm])
Thread count: 8 physical cores, 8 logical processors, using up to 8 threads
Optimize a model with 2888 rows, 14015 columns and 178147 nonzeros
Model fingerprint: 0xa9252e29
Variable types: 0 continuous, 14015 integer (14015 binary)
Coefficient statistics:
  Matrix range     [1e+00, 5e+02]
  Objective range  [2e+02, 5e+05]
  Bounds range     [1e+00, 1e+00]
  RHS range        [1e+00, 1e+00]
Presolve removed 1344 rows and 1441 columns
Presolve time: 0.19s
Presolved: 1544 rows, 12574 columns, 156751 nonzeros
Variable types: 0 continuous, 12574 integer (12560 binary)

Root relaxation: objective 5.187473e+03, 6581 iterations, 0.40 seconds (0.88 work units)

    Nodes    |    Current Node    |     Objective Bounds      |     Work
 Expl Unexpl |  Obj  Depth IntInf | Incumbent    BestBd   Gap | It/Node Time

     0     0 5187.47273    0   94          - 5187.47273      -     -    0s
H    0     0                    1618782.0000 5187.47273   100%     -    0s
H    0     0                    970934.00000 5187.47273  99.5%     -    0s
H    0     0                    94943.000000 5205.40766  94.5%     -    1s
     0     0 5205.40766    0  270 94943.0000 5205.40766  94.5%     -    1s
H    0     0                    84025.000000 5205.40766  93.8%     -    1s
     0     0 5209.56491    0  266 84025.0000 5209.56491  93.8%     -    1s
     0     0 5209.56491    0  266 84025.0000 5209.56491  93.8%     -    1s
     0     0 5213.57079    0  331 84025.0000 5213.57079  93.8%     -    1s
H    0     0                    81098.000000 5213.57079  93.6%     -    1s
     0     0 5214.37949    0  308 81098.0000 5214.37949  93.6%     -    1s
     0     0 5214.42523    0  327 81098.0000 5214.42523  93.6%     -    1s
     0     0 5214.42561    0  343 81098.0000 5214.42561  93.6%     -    1s
     0     0 5220.25187    0  322 81098.0000 5220.25187  93.6%     -    2s
H    0     0                    73412.000000 5220.25187  92.9%     -    2s
H    0     0                    72369.000000 5220.25187  92.8%     -    2s
     0     0 5221.72521    0  323 72369.0000 5221.72521  92.8%     -    2s
     0     0 5221.97777    0  333 72369.0000 5221.97777  92.8%     -    2s
     0     0 5221.98117    0  333 72369.0000 5221.98117  92.8%     -    2s
     0     0 5233.60872    0  307 72369.0000 5233.60872  92.8%     -    3s
     0     0 5236.01871    0  328 72369.0000 5236.01871  92.8%     -    3s
     0     0 5236.94115    0  327 72369.0000 5236.94115  92.8%     -    3s
     0     0 5236.95737    0  318 72369.0000 5236.95737  92.8%     -    3s
     0     0 5236.99155    0  327 72369.0000 5236.99155  92.8%     -    3s
     0     0 5237.01168    0  330 72369.0000 5237.01168  92.8%     -    3s
     0     0 5237.02767    0  338 72369.0000 5237.02767  92.8%     -    3s
     0     0 5237.02819    0  336 72369.0000 5237.02819  92.8%     -    3s
     0     0 5239.79047    0  366 72369.0000 5239.79047  92.8%     -    4s
     0     0 5265.76819    0  334 72369.0000 5265.76819  92.7%     -    4s
     0     0 5266.57701    0  367 72369.0000 5266.57701  92.7%     -    4s
     0     0 5266.70979    0  333 72369.0000 5266.70979  92.7%     -    4s
H    0     0                    66416.000000 5266.71453  92.1%     -    4s
     0     0 5266.71453    0  333 66416.0000 5266.71453  92.1%     -    4s
     0     0 5278.13850    0  332 66416.0000 5278.13850  92.1%     -    5s
H    0     0                    53479.000000 5278.13850  90.1%     -    5s
     0     0 5278.59721    0  348 53479.0000 5278.59721  90.1%     -    5s
     0     0 5278.63134    0  356 53479.0000 5278.63134  90.1%     -    5s
     0     0 5278.63286    0  361 53479.0000 5278.63286  90.1%     -    5s
     0     0 5282.57603    0  372 53479.0000 5282.57603  90.1%     -    5s
H    0     0                    27914.000000 5282.57603  81.1%     -    5s
H    0     0                    20963.000000 5282.57603  74.8%     -    5s
H    0     0                    10657.000000 5282.57603  50.4%     -    5s
     0     0 5283.10260    0  379 10657.0000 5283.10260  50.4%     -    5s
     0     0 5283.14443    0  390 10657.0000 5283.14443  50.4%     -    5s
     0     0 5283.14862    0  393 10657.0000 5283.14862  50.4%     -    5s
     0     0 5300.54028    0  304 10657.0000 5300.54028  50.3%     -    6s
     0     0 5300.54028    0  115 10657.0000 5300.54028  50.3%     -    6s
H    0     0                    10648.000000 5300.54028  50.2%     -    6s
H    0     0                    10646.000000 5300.54028  50.2%     -    7s
     0     0 5300.54028    0  272 10646.0000 5300.54028  50.2%     -    7s
     0     0 5300.54028    0  317 10646.0000 5300.54028  50.2%     -    7s
     0     0 5303.45886    0  314 10646.0000 5303.45886  50.2%     -    7s
     0     0 5305.51156    0  334 10646.0000 5305.51156  50.2%     -    7s
     0     0 5305.87835    0  315 10646.0000 5305.87835  50.2%     -    7s
     0     0 5306.04779    0  320 10646.0000 5306.04779  50.2%     -    7s
     0     0 5306.10363    0  325 10646.0000 5306.10363  50.2%     -    7s
     0     0 5306.10382    0  319 10646.0000 5306.10382  50.2%     -    7s
     0     0 5314.42389    0  357 10646.0000 5314.42389  50.1%     -    8s
H    0     0                    5717.0000000 5314.42389  7.04%     -    8s
     0     0 5316.54173    0  371 5717.00000 5316.54173  7.00%     -    8s
     0     0 5316.75133    0  389 5717.00000 5316.75133  7.00%     -    8s
     0     0 5316.75732    0  391 5717.00000 5316.75732  7.00%     -    8s
     0     0 5327.45648    0  368 5717.00000 5327.45648  6.81%     -    8s
H    0     0                    5370.0000000 5327.45648  0.79%     -    8s
     0     0 5339.07561    0  345 5370.00000 5339.07561  0.58%     -    9s
     0     0 5341.08526    0  364 5370.00000 5341.08526  0.54%     -    9s
     0     0 5341.80784    0  368 5370.00000 5341.80784  0.52%     -    9s
     0     0 5341.91891    0  386 5370.00000 5341.91891  0.52%     -    9s
     0     0 5341.91891    0  387 5370.00000 5341.91891  0.52%     -    9s
     0     0 5346.00000    0    6 5370.00000 5346.00000  0.45%     -    9s
     0     0 5346.00000    0    8 5370.00000 5346.00000  0.45%     -    9s
H    0     0                    5368.0000000 5346.00000  0.41%     -    9s
H    0     0                    5353.0000000 5346.00000  0.13%     -    9s
     0     0 5346.03774    0   19 5353.00000 5346.03774  0.13%     -    9s
*    0     0               0    5349.0000000 5349.00000  0.00%     -    9s

Explored 1 nodes (62881 simplex iterations) in 9.63 seconds (20.14 work units)
Thread count was 8 (of 8 available processors)

Solution count 10: 5349 5353 5353 ... 10646

Optimal solution found (tolerance 1.00e-04)
Best objective 5.349000000000e+03, best bound 5.349000000000e+03, gap 0.0000%

Gurobi 9.5.2 (mac64[arm]) logging started Thu Apr 27 19:55:56 2023

Set parameter LogFile to value "Java/output/iterative_model_full/scenario_seed_3_nJob_50_machineCount_1/mip_increment_1/log.txt"
Gurobi Optimizer version 9.5.2 build v9.5.2rc0 (mac64[arm])
Thread count: 8 physical cores, 8 logical processors, using up to 8 threads
Optimize a model with 3034 rows, 67104 columns and 841221 nonzeros
Model fingerprint: 0x84ef939c
Variable types: 0 continuous, 67104 integer (67104 binary)
Coefficient statistics:
  Matrix range     [1e+00, 5e+02]
  Objective range  [3e+00, 2e+07]
  Bounds range     [1e+00, 1e+00]
  RHS range        [1e+00, 1e+00]

Warning: Completing partial solution with 66960 unfixed non-continuous variables out of 67104
User MIP start produced solution with objective 29661 (0.06s)
Loaded user MIP start with objective 29661

Presolve removed 31 rows and 3423 columns
Presolve time: 0.83s
Presolved: 3003 rows, 63681 columns, 787251 nonzeros
Variable types: 0 continuous, 63681 integer (63651 binary)

Root simplex log...

Iteration    Objective       Primal Inf.    Dual Inf.      Time
   24811    2.3184688e+04   1.133781e+05   0.000000e+00      5s

Root relaxation: time limit, 30827 iterations, 5.04 seconds (11.42 work units)

    Nodes    |    Current Node    |     Objective Bounds      |     Work
 Expl Unexpl |  Obj  Depth IntInf | Incumbent    BestBd   Gap | It/Node Time

     0     0          -    0      29661.0000    0.00000   100%     -    6s

Explored 1 nodes (30827 simplex iterations) in 6.00 seconds (14.61 work units)
Thread count was 8 (of 8 available processors)

Solution count 1: 29661 

Time limit reached
Best objective 2.966100000000e+04, best bound 0.000000000000e+00, gap 100.0000%
